35 35
22
3 3 7 23
3 4 32 0
3 5 4 8
3 6 7 17
3 7 7 0
3 8 4 0
3 9 7 26
3 10 7 7
3 12 32 23
3 19 32 4
3 22 4 13
4 3 10 0
4 4 14 0
4 5 14 24
4 6 14 29
4 7 10 3
4 8 10 10
4 12 0 23
4 17 10 18
4 20 14 4
4 23 0 0
14 35 18 0
